instances/knapsack/discrete/knapsack_150_5.lp
\ Model knapsack_150_5
\ LP format - for model browsing. Use MPS format to capture full model detail.
\ Signature: 0x1d3d114bfbe69093
Minimize
  - 57 x[0] - 97 x[1] - 71 x[2] - 3 x[3] - 76 x[4] - 68 x[5] - 96 x[6]
   - 50 x[7] - 45 x[8] - 9 x[9] - 18 x[10] - 70 x[11] - 98 x[12] - 61 x[13]
   - 34 x[14] - 71 x[15] - 53 x[16] - 57 x[17] - 81 x[18] - 72 x[19]
   - 56 x[20] - 74 x[21] - 55 x[22] - 23 x[23] - 64 x[24] - 9 x[25]
   - 67 x[26] - 18 x[27] - 37 x[28] - 51 x[29] - 12 x[30] - 67 x[31]
   - 63 x[32] - 78 x[33] - 10 x[34] - 60 x[35] - 76 x[36] - 82 x[37]
   - 73 x[38] - 90 x[39] - 31 x[40] - 20 x[41] - 28 x[42] - 90 x[43]
   - 73 x[44] - 22 x[45] - 67 x[46] - 63 x[47] - 95 x[48] - 28 x[49]
   - 38 x[50] - 61 x[51] - 98 x[52] - 4 x[53] - 87 x[54] - 45 x[55]
   - 85 x[56] - 79 x[57] - 39 x[58] - 62 x[59] - 71 x[60] - 13 x[61]
   - 64 x[62] - 44 x[63] - x[64] - 68 x[65] - 32 x[66] - 96 x[67]
   - 31 x[68] - 68 x[69] - 52 x[70] - 26 x[71] - 60 x[72] - 44 x[73]
   - 9 x[74] - 29 x[75] - 69 x[76] - 20 x[77] - 95 x[78] - 42 x[79]
   - 62 x[80] - 29 x[81] - 40 x[82] - 81 x[83] - 92 x[84] - 87 x[85]
   - 45 x[86] - 78 x[87] - 27 x[88] - 89 x[89] - 17 x[90] - 64 x[91]
   - 92 x[92] - 43 x[93] - 7 x[94] - 25 x[95] - 16 x[96] - 11 x[97]
   - 83 x[98] - 39 x[99] - 95 x[100] - 52 x[101] - 61 x[102] - 4 x[103]
   - 86 x[104] - 98 x[105] - 73 x[106] - 39 x[107] - 21 x[108] - 19 x[109]
   - 100 x[110] - 9 x[111] - 40 x[112] - 50 x[113] - 25 x[114] - 92 x[115]
   - 38 x[116] - 68 x[117] - 37 x[118] - 98 x[119] - 92 x[120] - 85 x[121]
   - 97 x[122] - 6 x[123] - 26 x[124] - 47 x[125] - 67 x[126] - 53 x[127]
   - 94 x[128] - 3 x[129] - 21 x[130] - 6 x[131] - 55 x[132] - 57 x[133]
   - 76 x[134] - 10 x[135] - 55 x[136] - 88 x[137] - 26 x[138] - 56 x[139]
   - 81 x[140] - 75 x[141] - 28 x[142] - 54 x[143] - 39 x[144] - x[145]
   - 40 x[146] - 46 x[147] - 87 x[148] - 5 x[149]
Subject To
 primal_upper: 80 x[0] + 97 x[1] + 31 x[2] + 20 x[3] + 61 x[4] + 46 x[5]
   + 66 x[6] + 76 x[7] + 70 x[8] + 91 x[9] + 92 x[10] + 28 x[11] + 53 x[12]
   + 93 x[13] + 37 x[14] + 21 x[15] + 54 x[16] + 53 x[17] + 22 x[18]
   + 23 x[19] + 82 x[20] + 52 x[21] + 13 x[22] + 63 x[23] + 37 x[24]
   + 41 x[25] + 47 x[26] + 60 x[27] + 82 x[28] + 36 x[29] + 98 x[30]
   + 88 x[31] + 48 x[32] + 18 x[33] + 9 x[34] + 22 x[35] + x[36] + 73 x[37]
   + 29 x[38] + 27 x[39] + 16 x[40] + 34 x[41] + 67 x[42] + 46 x[43]
   + 72 x[44] + 91 x[45] + 98 x[46] + 42 x[47] + 28 x[48] + 21 x[49]
   + 15 x[50] + 9 x[51] + 26 x[52] + 13 x[53] + 37 x[54] + 20 x[55]
   + 50 x[56] + 59 x[57] + 13 x[58] + 87 x[59] + 29 x[60] + 27 x[61]
   + 4 x[62] + 99 x[63] + 36 x[64] + 97 x[65] + 85 x[66] + 91 x[67]
   + 77 x[68] + 26 x[69] + 94 x[70] + 66 x[71] + 43 x[72] + 16 x[73]
   + 100 x[74] + 53 x[75] + 3 x[76] + 84 x[77] + 65 x[78] + 95 x[79]
   + 78 x[80] + 74 x[81] + 91 x[82] + 94 x[83] + 70 x[84] + 18 x[85]
   + 28 x[86] + 53 x[87] + 63 x[88] + 96 x[89] + 61 x[90] + 69 x[91]
   + 69 x[92] + 72 x[93] + 17 x[94] + 82 x[95] + 62 x[96] + 65 x[97]
   + 69 x[98] + 85 x[99] + 78 x[100] + 21 x[101] + 79 x[102] + 49 x[103]
   + 54 x[104] + 99 x[105] + 80 x[106] + 27 x[107] + 19 x[108] + 94 x[109]
   + 83 x[110] + 36 x[111] + 22 x[112] + 14 x[113] + 66 x[114] + 59 x[115]
   + 100 x[116] + 82 x[117] + 94 x[118] + 53 x[119] + 44 x[120] + 9 x[121]
   + 64 x[122] + 59 x[123] + 74 x[124] + 11 x[125] + 32 x[126] + 84 x[127]
   + 95 x[128] + 36 x[129] + 78 x[130] + 14 x[131] + 67 x[132] + 93 x[133]
   + 37 x[134] + 79 x[135] + 50 x[136] + 31 x[137] + 2 x[138] + 85 x[139]
   + 60 x[140] + 5 x[141] + 16 x[142] + 56 x[143] + 74 x[144] + 67 x[145]
   + 95 x[146] + 60 x[147] + 29 x[148] + 3 x[149] + 8 r[0] + 9.7 r[1]
   + 3.1 r[2] + 2 r[3] + 6.1 r[4] + 4.6 r[5] + 6.6 r[6] + 7.6 r[7] + 7 r[8]
   + 9.1 r[9] + 9.2 r[10] + 2.8 r[11] + 5.3 r[12] + 9.3 r[13] + 3.7 r[14]
   + 2.1 r[15] + 5.4 r[16] + 5.3 r[17] + 2.2 r[18] + 2.3 r[19] + 8.2 r[20]
   + 5.2 r[21] + 1.3 r[22] + 6.3 r[23] + 3.7 r[24] + 4.1 r[25] + 4.7 r[26]
   + 6 r[27] + 8.2 r[28] + 3.6 r[29] + 9.8 r[30] + 8.8 r[31] + 4.8 r[32]
   + 1.8 r[33] + 0.9 r[34] + 2.2 r[35] + 0.1 r[36] + 7.3 r[37] + 2.9 r[38]
   + 2.7 r[39] + 1.6 r[40] + 3.4 r[41] + 6.7 r[42] + 4.6 r[43] + 7.2 r[44]
   + 9.1 r[45] + 9.8 r[46] + 4.2 r[47] + 2.8 r[48] + 2.1 r[49] + 1.5 r[50]
   + 0.9 r[51] + 2.6 r[52] + 1.3 r[53] + 3.7 r[54] + 2 r[55] + 5 r[56]
   + 5.9 r[57] + 1.3 r[58] + 8.7 r[59] + 2.9 r[60] + 2.7 r[61] + 0.4 r[62]
   + 9.9 r[63] + 3.6 r[64] + 9.7 r[65] + 8.5 r[66] + 9.1 r[67] + 7.7 r[68]
   + 2.6 r[69] + 9.4 r[70] + 6.6 r[71] + 4.3 r[72] + 1.6 r[73] + 10 r[74]
   + 5.3 r[75] + 0.3 r[76] + 8.4 r[77] + 6.5 r[78] + 9.5 r[79] + 7.8 r[80]
   + 7.4 r[81] + 9.1 r[82] + 9.4 r[83] + 7 r[84] + 1.8 r[85] + 2.8 r[86]
   + 5.3 r[87] + 6.3 r[88] + 9.6 r[89] + 6.1 r[90] + 6.9 r[91] + 6.9 r[92]
   + 7.2 r[93] + 1.7 r[94] + 8.2 r[95] + 6.2 r[96] + 6.5 r[97] + 6.9 r[98]
   + 8.5 r[99] + 7.8 r[100] + 2.1 r[101] + 7.9 r[102] + 4.9 r[103]
   + 5.4 r[104] + 9.9 r[105] + 8 r[106] + 2.7 r[107] + 1.9 r[108]
   + 9.4 r[109] + 8.3 r[110] + 3.6 r[111] + 2.2 r[112] + 1.4 r[113]
   + 6.6 r[114] + 5.9 r[115] + 10 r[116] + 8.2 r[117] + 9.4 r[118]
   + 5.3 r[119] + 4.4 r[120] + 0.9 r[121] + 6.4 r[122] + 5.9 r[123]
   + 7.4 r[124] + 1.1 r[125] + 3.2 r[126] + 8.4 r[127] + 9.5 r[128]
   + 3.6 r[129] + 7.8 r[130] + 1.4 r[131] + 6.7 r[132] + 9.3 r[133]
   + 3.7 r[134] + 7.9 r[135] + 5 r[136] + 3.1 r[137] + 0.2 r[138]
   + 8.5 r[139] + 6 r[140] + 0.5 r[141] + 1.6 r[142] + 5.6 r[143]
   + 7.4 r[144] + 6.7 r[145] + 9.5 r[146] + 6 r[147] + 2.9 r[148]
   + 0.3 r[149] <= 772
 primal_lower: 1.814565968950681 x[0] + 1.923347575299003 x[1]
   + 3.244788747311545 x[2] + 0.3746987697875775 x[3]
   + 2.937806153672177 x[4] + 4.318323961642824 x[5]
   + 1.305473228688208 x[6] + 1.500163822485253 x[7]
   + 3.528054311549615 x[8] + 4.315343454972487 x[9]
   + 3.281537450502436 x[10] + 3.112465268280854 x[11]
   + 1.979575361255976 x[12] + 4.03852258810022 x[13]
   + 4.413591432878897 x[14] + 0.6143351191937321 x[15]
   + 1.378866006205011 x[16] + 1.376633821213865 x[17]
   + 1.092503080568238 x[18] + 1.755126127778147 x[19]
   + 1.943591659105031 x[20] + 4.494380439784959 x[21]
   + 4.896518088500407 x[22] + 3.708905977198551 x[23]
   + 0.7517991539963679 x[24] + 1.461500235143992 x[25]
   + 3.178520513710509 x[26] + 0.6613816528440613 x[27]
   + 4.909748690591889 x[28] + 0.8044104954693 x[29]
   + 0.2564040439576196 x[30] + 0.5964266792610794 x[31]
   + 0.2300264260995871 x[32] + 3.861533388470734 x[33]
   + 3.86349439654328 x[34] + 0.5358003857086597 x[35]
   + 4.165499635195115 x[36] + 4.803781950781801 x[37]
   + 3.526657625661378 x[38] + 2.865227021488655 x[39]
   + 0.2029165527352016 x[40] + 2.449029855297399 x[41]
   + 4.304377274195717 x[42] + 1.191470882380851 x[43]
   + 3.304960193325066 x[44] + 1.078047491038043 x[45]
   + 2.764069077534113 x[46] + 2.206371186265947 x[47]
   + 1.885204501705056 x[48] + 3.805311542884041 x[49]
   + 0.2893172678928169 x[50] + 2.122322293677305 x[51]
   + 0.4542464536199454 x[52] + 3.603727754508156 x[53]
   + 2.402325402824077 x[54] + 0.9312568309437749 x[55]
   + 3.425873700424936 x[56] + 1.829456080088397 x[57]
   + 1.200850341046802 x[58] + 1.794561272166735 x[59]
   + 4.492485918037309 x[60] + 1.140411403726987 x[61]
   + 3.553684321180477 x[62] + 3.875826842016224 x[63]
   + 1.527850028559553 x[64] + 0.1298350360367494 x[65]
   + 4.314304476571858 x[66] + 4.682411224063327 x[67]
   + 1.662278152457656 x[68] + 0.3045265897314857 x[69]
   + 1.110842241337244 x[70] + 3.351316587301656 x[71]
   + 3.780002805470643 x[72] + 0.609100058716067 x[73]
   + 0.3810871606896128 x[74] + 3.349966686351984 x[75]
   + 2.008056742077005 x[76] + 1.267933682323299 x[77]
   + 0.0286494831797913 x[78] + 1.964271776952581 x[79]
   + 1.793187213246333 x[80] + 2.04391552737802 x[81]
   + 0.355374908943508 x[82] + 3.918912318928784 x[83]
   + 0.2303715092322594 x[84] + 0.1712125948319577 x[85]
   + 0.9159233899476731 x[86] + 0.1215891726899589 x[87]
   + 0.8396671754500177 x[88] + 1.590055090405657 x[89]
   + 1.42793043792742 x[90] + 3.438844878854333 x[91]
   + 3.209512088537607 x[92] + 3.952887879396946 x[93]
   + 1.987422993073283 x[94] + 2.013231037403699 x[95]
   + 0.3251806852824007 x[96] + 3.646561023874788 x[97]
   + 2.94179842497122 x[98] + 1.0811743376283 x[99]
   + 3.293026209790423 x[100] + 3.230348932523272 x[101]
   + 4.863889080042927 x[102] + 3.505582345730339 x[103]
   + 3.532181426919801 x[104] + 4.396115606777624 x[105]
   + 1.857394911839396 x[106] + 4.402929568307627 x[107]
   + 4.359684906240245 x[108] + 1.445447515437396 x[109]
   + 0.5107579259637332 x[110] + 1.414303547438925 x[111]
   + 0.9111273173537601 x[112] + 2.585005890416199 x[113]
   + 3.94357353398106 x[114] + 4.914743874277542 x[115]
   + 0.6067608319654832 x[116] + 4.19954317057759 x[117]
   + 2.981951302925635 x[118] + 2.591879838183265 x[119]
   + 1.397679476591659 x[120] + 3.809444163014718 x[121]
   + 3.31768372753477 x[122] + 3.626209698307599 x[123]
   + 3.84096829965656 x[124] + 3.928240727919172 x[125]
   + 2.202730527903416 x[126] + 2.040758096999554 x[127]
   + 0.9537818378173851 x[128] + 0.9264386257353429 x[129]
   + 4.294679520392503 x[130] + 4.037939389261155 x[131]
   + 1.714587264333338 x[132] + 3.636411635739982 x[133]
   + 3.028027674224713 x[134] + 0.153568626448652 x[135]
   + 3.944181642262458 x[136] + 2.439503306523885 x[137]
   + 2.898878207619804 x[138] + 1.728423729664127 x[139]
   + 3.607919888810418 x[140] + 0.9004715006431305 x[141]
   + 4.750759967288556 x[142] + 3.534439586944262 x[143]
   + 1.457066117480363 x[144] + 4.863624747429477 x[145]
   + 2.854231188466379 x[146] + 3.337959545632861 x[147]
   + 1.278612748753152 x[148] + 4.000364328756144 x[149] + 59 u[0]
   + 79 u[1] + 17 u[2] + 18 u[3] + 63 u[4] + 57 u[5] + 20 u[6] + 51 u[7]
   + 4 u[8] + 25 u[9] + 83 u[10] + 50 u[11] + 11 u[12] + 79 u[13]
   + 60 u[14] + 96 u[15] + 92 u[16] + 39 u[17] + 40 u[18] + 73 u[19]
   + 88 u[20] + 83 u[21] + 15 u[22] + 34 u[23] + 8 u[24] + 63 u[25] + u[26]
   + 43 u[27] + 97 u[28] + 98 u[29] + 85 u[30] + 63 u[31] + 11 u[32]
   + 24 u[33] + 67 u[34] + 8 u[35] + 71 u[36] + 32 u[37] + 79 u[38]
   + 70 u[39] + 98 u[40] + 81 u[41] + 29 u[42] + 53 u[43] + 14 u[44]
   + 6 u[45] + 97 u[46] + 17 u[47] + 90 u[48] + 47 u[49] + 70 u[50]
   + 7 u[51] + 52 u[52] + 59 u[53] + 84 u[54] + 59 u[55] + 96 u[56]
   + 2 u[57] + 11 u[58] + 97 u[59] + 100 u[60] + 66 u[61] + 23 u[62]
   + 10 u[63] + 63 u[64] + 63 u[65] + 88 u[66] + 90 u[67] + 47 u[68]
   + 73 u[69] + 53 u[70] + 69 u[71] + u[72] + 14 u[73] + 79 u[74]
   + 60 u[75] + 10 u[76] + 90 u[77] + 68 u[78] + 58 u[79] + 61 u[80]
   + 49 u[81] + 38 u[82] + u[83] + 29 u[84] + 33 u[85] + 23 u[86]
   + 15 u[87] + 69 u[88] + 86 u[89] + 24 u[90] + 36 u[91] + 68 u[92]
   + 43 u[93] + 67 u[94] + 68 u[95] + 64 u[96] + 40 u[97] + 55 u[98]
   + 79 u[99] + 20 u[100] + 63 u[101] + 57 u[102] + 75 u[103] + 44 u[104]
   + 5 u[105] + 70 u[106] + 50 u[107] + 6 u[108] + 12 u[109] + 14 u[110]
   + 46 u[111] + 52 u[112] + 96 u[113] + 12 u[114] + 50 u[115] + 50 u[116]
   + 72 u[117] + 96 u[118] + 88 u[119] + 95 u[120] + 28 u[121] + 7 u[122]
   + 38 u[123] + 60 u[124] + 14 u[125] + 35 u[126] + 15 u[127] + 90 u[128]
   + 66 u[129] + u[130] + 72 u[131] + 98 u[132] + 19 u[133] + 8 u[134]
   + 93 u[135] + 40 u[136] + 74 u[137] + 5 u[138] + 55 u[139] + 98 u[140]
   + 100 u[141] + 94 u[142] + 2 u[143] + 64 u[144] + u[145] + 77 u[146]
   + 90 u[147] + 96 u[148] + 53 u[149] <= 13416
 mccormick1[0]: - u[0] + r[0] <= 0
 mccormick1[1]: - u[1] + r[1] <= 0
 mccormick1[2]: - u[2] + r[2] <= 0
 mccormick1[3]: - u[3] + r[3] <= 0
 mccormick1[4]: - u[4] + r[4] <= 0
 mccormick1[5]: - u[5] + r[5] <= 0
 mccormick1[6]: - u[6] + r[6] <= 0
 mccormick1[7]: - u[7] + r[7] <= 0
 mccormick1[8]: - u[8] + r[8] <= 0
 mccormick1[9]: - u[9] + r[9] <= 0
 mccormick1[10]: - u[10] + r[10] <= 0
 mccormick1[11]: - u[11] + r[11] <= 0
 mccormick1[12]: - u[12] + r[12] <= 0
 mccormick1[13]: - u[13] + r[13] <= 0
 mccormick1[14]: - u[14] + r[14] <= 0
 mccormick1[15]: - u[15] + r[15] <= 0
 mccormick1[16]: - u[16] + r[16] <= 0
 mccormick1[17]: - u[17] + r[17] <= 0
 mccormick1[18]: - u[18] + r[18] <= 0
 mccormick1[19]: - u[19] + r[19] <= 0
 mccormick1[20]: - u[20] + r[20] <= 0
 mccormick1[21]: - u[21] + r[21] <= 0
 mccormick1[22]: - u[22] + r[22] <= 0
 mccormick1[23]: - u[23] + r[23] <= 0
 mccormick1[24]: - u[24] + r[24] <= 0
 mccormick1[25]: - u[25] + r[25] <= 0
 mccormick1[26]: - u[26] + r[26] <= 0
 mccormick1[27]: - u[27] + r[27] <= 0
 mccormick1[28]: - u[28] + r[28] <= 0
 mccormick1[29]: - u[29] + r[29] <= 0
 mccormick1[30]: - u[30] + r[30] <= 0
 mccormick1[31]: - u[31] + r[31] <= 0
 mccormick1[32]: - u[32] + r[32] <= 0
 mccormick1[33]: - u[33] + r[33] <= 0
 mccormick1[34]: - u[34] + r[34] <= 0
 mccormick1[35]: - u[35] + r[35] <= 0
 mccormick1[36]: - u[36] + r[36] <= 0
 mccormick1[37]: - u[37] + r[37] <= 0
 mccormick1[38]: - u[38] + r[38] <= 0
 mccormick1[39]: - u[39] + r[39] <= 0
 mccormick1[40]: - u[40] + r[40] <= 0
 mccormick1[41]: - u[41] + r[41] <= 0
 mccormick1[42]: - u[42] + r[42] <= 0
 mccormick1[43]: - u[43] + r[43] <= 0
 mccormick1[44]: - u[44] + r[44] <= 0
 mccormick1[45]: - u[45] + r[45] <= 0
 mccormick1[46]: - u[46] + r[46] <= 0
 mccormick1[47]: - u[47] + r[47] <= 0
 mccormick1[48]: - u[48] + r[48] <= 0
 mccormick1[49]: - u[49] + r[49] <= 0
 mccormick1[50]: - u[50] + r[50] <= 0
 mccormick1[51]: - u[51] + r[51] <= 0
 mccormick1[52]: - u[52] + r[52] <= 0
 mccormick1[53]: - u[53] + r[53] <= 0
 mccormick1[54]: - u[54] + r[54] <= 0
 mccormick1[55]: - u[55] + r[55] <= 0
 mccormick1[56]: - u[56] + r[56] <= 0
 mccormick1[57]: - u[57] + r[57] <= 0
 mccormick1[58]: - u[58] + r[58] <= 0
 mccormick1[59]: - u[59] + r[59] <= 0
 mccormick1[60]: - u[60] + r[60] <= 0
 mccormick1[61]: - u[61] + r[61] <= 0
 mccormick1[62]: - u[62] + r[62] <= 0
 mccormick1[63]: - u[63] + r[63] <= 0
 mccormick1[64]: - u[64] + r[64] <= 0
 mccormick1[65]: - u[65] + r[65] <= 0
 mccormick1[66]: - u[66] + r[66] <= 0
 mccormick1[67]: - u[67] + r[67] <= 0
 mccormick1[68]: - u[68] + r[68] <= 0
 mccormick1[69]: - u[69] + r[69] <= 0
 mccormick1[70]: - u[70] + r[70] <= 0
 mccormick1[71]: - u[71] + r[71] <= 0
 mccormick1[72]: - u[72] + r[72] <= 0
 mccormick1[73]: - u[73] + r[73] <= 0
 mccormick1[74]: - u[74] + r[74] <= 0
 mccormick1[75]: - u[75] + r[75] <= 0
 mccormick1[76]: - u[76] + r[76] <= 0
 mccormick1[77]: - u[77] + r[77] <= 0
 mccormick1[78]: - u[78] + r[78] <= 0
 mccormick1[79]: - u[79] + r[79] <= 0
 mccormick1[80]: - u[80] + r[80] <= 0
 mccormick1[81]: - u[81] + r[81] <= 0
 mccormick1[82]: - u[82] + r[82] <= 0
 mccormick1[83]: - u[83] + r[83] <= 0
 mccormick1[84]: - u[84] + r[84] <= 0
 mccormick1[85]: - u[85] + r[85] <= 0
 mccormick1[86]: - u[86] + r[86] <= 0
 mccormick1[87]: - u[87] + r[87] <= 0
 mccormick1[88]: - u[88] + r[88] <= 0
 mccormick1[89]: - u[89] + r[89] <= 0
 mccormick1[90]: - u[90] + r[90] <= 0
 mccormick1[91]: - u[91] + r[91] <= 0
 mccormick1[92]: - u[92] + r[92] <= 0
 mccormick1[93]: - u[93] + r[93] <= 0
 mccormick1[94]: - u[94] + r[94] <= 0
 mccormick1[95]: - u[95] + r[95] <= 0
 mccormick1[96]: - u[96] + r[96] <= 0
 mccormick1[97]: - u[97] + r[97] <= 0
 mccormick1[98]: - u[98] + r[98] <= 0
 mccormick1[99]: - u[99] + r[99] <= 0
 mccormick1[100]: - u[100] + r[100] <= 0
 mccormick1[101]: - u[101] + r[101] <= 0
 mccormick1[102]: - u[102] + r[102] <= 0
 mccormick1[103]: - u[103] + r[103] <= 0
 mccormick1[104]: - u[104] + r[104] <= 0
 mccormick1[105]: - u[105] + r[105] <= 0
 mccormick1[106]: - u[106] + r[106] <= 0
 mccormick1[107]: - u[107] + r[107] <= 0
 mccormick1[108]: - u[108] + r[108] <= 0
 mccormick1[109]: - u[109] + r[109] <= 0
 mccormick1[110]: - u[110] + r[110] <= 0
 mccormick1[111]: - u[111] + r[111] <= 0
 mccormick1[112]: - u[112] + r[112] <= 0
 mccormick1[113]: - u[113] + r[113] <= 0
 mccormick1[114]: - u[114] + r[114] <= 0
 mccormick1[115]: - u[115] + r[115] <= 0
 mccormick1[116]: - u[116] + r[116] <= 0
 mccormick1[117]: - u[117] + r[117] <= 0
 mccormick1[118]: - u[118] + r[118] <= 0
 mccormick1[119]: - u[119] + r[119] <= 0
 mccormick1[120]: - u[120] + r[120] <= 0
 mccormick1[121]: - u[121] + r[121] <= 0
 mccormick1[122]: - u[122] + r[122] <= 0
 mccormick1[123]: - u[123] + r[123] <= 0
 mccormick1[124]: - u[124] + r[124] <= 0
 mccormick1[125]: - u[125] + r[125] <= 0
 mccormick1[126]: - u[126] + r[126] <= 0
 mccormick1[127]: - u[127] + r[127] <= 0
 mccormick1[128]: - u[128] + r[128] <= 0
 mccormick1[129]: - u[129] + r[129] <= 0
 mccormick1[130]: - u[130] + r[130] <= 0
 mccormick1[131]: - u[131] + r[131] <= 0
 mccormick1[132]: - u[132] + r[132] <= 0
 mccormick1[133]: - u[133] + r[133] <= 0
 mccormick1[134]: - u[134] + r[134] <= 0
 mccormick1[135]: - u[135] + r[135] <= 0
 mccormick1[136]: - u[136] + r[136] <= 0
 mccormick1[137]: - u[137] + r[137] <= 0
 mccormick1[138]: - u[138] + r[138] <= 0
 mccormick1[139]: - u[139] + r[139] <= 0
 mccormick1[140]: - u[140] + r[140] <= 0
 mccormick1[141]: - u[141] + r[141] <= 0
 mccormick1[142]: - u[142] + r[142] <= 0
 mccormick1[143]: - u[143] + r[143] <= 0
 mccormick1[144]: - u[144] + r[144] <= 0
 mccormick1[145]: - u[145] + r[145] <= 0
 mccormick1[146]: - u[146] + r[146] <= 0
 mccormick1[147]: - u[147] + r[147] <= 0
 mccormick1[148]: - u[148] + r[148] <= 0
 mccormick1[149]: - u[149] + r[149] <= 0
 mccormick2[0]: - x[0] + r[0] <= 0
 mccormick2[1]: - x[1] + r[1] <= 0
 mccormick2[2]: - x[2] + r[2] <= 0
 mccormick2[3]: - x[3] + r[3] <= 0
 mccormick2[4]: - x[4] + r[4] <= 0
 mccormick2[5]: - x[5] + r[5] <= 0
 mccormick2[6]: - x[6] + r[6] <= 0
 mccormick2[7]: - x[7] + r[7] <= 0
 mccormick2[8]: - x[8] + r[8] <= 0
 mccormick2[9]: - x[9] + r[9] <= 0
 mccormick2[10]: - x[10] + r[10] <= 0
 mccormick2[11]: - x[11] + r[11] <= 0
 mccormick2[12]: - x[12] + r[12] <= 0
 mccormick2[13]: - x[13] + r[13] <= 0
 mccormick2[14]: - x[14] + r[14] <= 0
 mccormick2[15]: - x[15] + r[15] <= 0
 mccormick2[16]: - x[16] + r[16] <= 0
 mccormick2[17]: - x[17] + r[17] <= 0
 mccormick2[18]: - x[18] + r[18] <= 0
 mccormick2[19]: - x[19] + r[19] <= 0
 mccormick2[20]: - x[20] + r[20] <= 0
 mccormick2[21]: - x[21] + r[21] <= 0
 mccormick2[22]: - x[22] + r[22] <= 0
 mccormick2[23]: - x[23] + r[23] <= 0
 mccormick2[24]: - x[24] + r[24] <= 0
 mccormick2[25]: - x[25] + r[25] <= 0
 mccormick2[26]: - x[26] + r[26] <= 0
 mccormick2[27]: - x[27] + r[27] <= 0
 mccormick2[28]: - x[28] + r[28] <= 0
 mccormick2[29]: - x[29] + r[29] <= 0
 mccormick2[30]: - x[30] + r[30] <= 0
 mccormick2[31]: - x[31] + r[31] <= 0
 mccormick2[32]: - x[32] + r[32] <= 0
 mccormick2[33]: - x[33] + r[33] <= 0
 mccormick2[34]: - x[34] + r[34] <= 0
 mccormick2[35]: - x[35] + r[35] <= 0
 mccormick2[36]: - x[36] + r[36] <= 0
 mccormick2[37]: - x[37] + r[37] <= 0
 mccormick2[38]: - x[38] + r[38] <= 0
 mccormick2[39]: - x[39] + r[39] <= 0
 mccormick2[40]: - x[40] + r[40] <= 0
 mccormick2[41]: - x[41] + r[41] <= 0
 mccormick2[42]: - x[42] + r[42] <= 0
 mccormick2[43]: - x[43] + r[43] <= 0
 mccormick2[44]: - x[44] + r[44] <= 0
 mccormick2[45]: - x[45] + r[45] <= 0
 mccormick2[46]: - x[46] + r[46] <= 0
 mccormick2[47]: - x[47] + r[47] <= 0
 mccormick2[48]: - x[48] + r[48] <= 0
 mccormick2[49]: - x[49] + r[49] <= 0
 mccormick2[50]: - x[50] + r[50] <= 0
 mccormick2[51]: - x[51] + r[51] <= 0
 mccormick2[52]: - x[52] + r[52] <= 0
 mccormick2[53]: - x[53] + r[53] <= 0
 mccormick2[54]: - x[54] + r[54] <= 0
 mccormick2[55]: - x[55] + r[55] <= 0
 mccormick2[56]: - x[56] + r[56] <= 0
 mccormick2[57]: - x[57] + r[57] <= 0
 mccormick2[58]: - x[58] + r[58] <= 0
 mccormick2[59]: - x[59] + r[59] <= 0
 mccormick2[60]: - x[60] + r[60] <= 0
 mccormick2[61]: - x[61] + r[61] <= 0
 mccormick2[62]: - x[62] + r[62] <= 0
 mccormick2[63]: - x[63] + r[63] <= 0
 mccormick2[64]: - x[64] + r[64] <= 0
 mccormick2[65]: - x[65] + r[65] <= 0
 mccormick2[66]: - x[66] + r[66] <= 0
 mccormick2[67]: - x[67] + r[67] <= 0
 mccormick2[68]: - x[68] + r[68] <= 0
 mccormick2[69]: - x[69] + r[69] <= 0
 mccormick2[70]: - x[70] + r[70] <= 0
 mccormick2[71]: - x[71] + r[71] <= 0
 mccormick2[72]: - x[72] + r[72] <= 0
 mccormick2[73]: - x[73] + r[73] <= 0
 mccormick2[74]: - x[74] + r[74] <= 0
 mccormick2[75]: - x[75] + r[75] <= 0
 mccormick2[76]: - x[76] + r[76] <= 0
 mccormick2[77]: - x[77] + r[77] <= 0
 mccormick2[78]: - x[78] + r[78] <= 0
 mccormick2[79]: - x[79] + r[79] <= 0
 mccormick2[80]: - x[80] + r[80] <= 0
 mccormick2[81]: - x[81] + r[81] <= 0
 mccormick2[82]: - x[82] + r[82] <= 0
 mccormick2[83]: - x[83] + r[83] <= 0
 mccormick2[84]: - x[84] + r[84] <= 0
 mccormick2[85]: - x[85] + r[85] <= 0
 mccormick2[86]: - x[86] + r[86] <= 0
 mccormick2[87]: - x[87] + r[87] <= 0
 mccormick2[88]: - x[88] + r[88] <= 0
 mccormick2[89]: - x[89] + r[89] <= 0
 mccormick2[90]: - x[90] + r[90] <= 0
 mccormick2[91]: - x[91] + r[91] <= 0
 mccormick2[92]: - x[92] + r[92] <= 0
 mccormick2[93]: - x[93] + r[93] <= 0
 mccormick2[94]: - x[94] + r[94] <= 0
 mccormick2[95]: - x[95] + r[95] <= 0
 mccormick2[96]: - x[96] + r[96] <= 0
 mccormick2[97]: - x[97] + r[97] <= 0
 mccormick2[98]: - x[98] + r[98] <= 0
 mccormick2[99]: - x[99] + r[99] <= 0
 mccormick2[100]: - x[100] + r[100] <= 0
 mccormick2[101]: - x[101] + r[101] <= 0
 mccormick2[102]: - x[102] + r[102] <= 0
 mccormick2[103]: - x[103] + r[103] <= 0
 mccormick2[104]: - x[104] + r[104] <= 0
 mccormick2[105]: - x[105] + r[105] <= 0
 mccormick2[106]: - x[106] + r[106] <= 0
 mccormick2[107]: - x[107] + r[107] <= 0
 mccormick2[108]: - x[108] + r[108] <= 0
 mccormick2[109]: - x[109] + r[109] <= 0
 mccormick2[110]: - x[110] + r[110] <= 0
 mccormick2[111]: - x[111] + r[111] <= 0
 mccormick2[112]: - x[112] + r[112] <= 0
 mccormick2[113]: - x[113] + r[113] <= 0
 mccormick2[114]: - x[114] + r[114] <= 0
 mccormick2[115]: - x[115] + r[115] <= 0
 mccormick2[116]: - x[116] + r[116] <= 0
 mccormick2[117]: - x[117] + r[117] <= 0
 mccormick2[118]: - x[118] + r[118] <= 0
 mccormick2[119]: - x[119] + r[119] <= 0
 mccormick2[120]: - x[120] + r[120] <= 0
 mccormick2[121]: - x[121] + r[121] <= 0
 mccormick2[122]: - x[122] + r[122] <= 0
 mccormick2[123]: - x[123] + r[123] <= 0
 mccormick2[124]: - x[124] + r[124] <= 0
 mccormick2[125]: - x[125] + r[125] <= 0
 mccormick2[126]: - x[126] + r[126] <= 0
 mccormick2[127]: - x[127] + r[127] <= 0
 mccormick2[128]: - x[128] + r[128] <= 0
 mccormick2[129]: - x[129] + r[129] <= 0
 mccormick2[130]: - x[130] + r[130] <= 0
 mccormick2[131]: - x[131] + r[131] <= 0
 mccormick2[132]: - x[132] + r[132] <= 0
 mccormick2[133]: - x[133] + r[133] <= 0
 mccormick2[134]: - x[134] + r[134] <= 0
 mccormick2[135]: - x[135] + r[135] <= 0
 mccormick2[136]: - x[136] + r[136] <= 0
 mccormick2[137]: - x[137] + r[137] <= 0
 mccormick2[138]: - x[138] + r[138] <= 0
 mccormick2[139]: - x[139] + r[139] <= 0
 mccormick2[140]: - x[140] + r[140] <= 0
 mccormick2[141]: - x[141] + r[141] <= 0
 mccormick2[142]: - x[142] + r[142] <= 0
 mccormick2[143]: - x[143] + r[143] <= 0
 mccormick2[144]: - x[144] + r[144] <= 0
 mccormick2[145]: - x[145] + r[145] <= 0
 mccormick2[146]: - x[146] + r[146] <= 0
 mccormick2[147]: - x[147] + r[147] <= 0
 mccormick2[148]: - x[148] + r[148] <= 0
 mccormick2[149]: - x[149] + r[149] <= 0
 mccormick3[0]: x[0] + u[0] - r[0] <= 1
 mccormick3[1]: x[1] + u[1] - r[1] <= 1
 mccormick3[2]: x[2] + u[2] - r[2] <= 1
 mccormick3[3]: x[3] + u[3] - r[3] <= 1
 mccormick3[4]: x[4] + u[4] - r[4] <= 1
 mccormick3[5]: x[5] + u[5] - r[5] <= 1
 mccormick3[6]: x[6] + u[6] - r[6] <= 1
 mccormick3[7]: x[7] + u[7] - r[7] <= 1
 mccormick3[8]: x[8] + u[8] - r[8] <= 1
 mccormick3[9]: x[9] + u[9] - r[9] <= 1
 mccormick3[10]: x[10] + u[10] - r[10] <= 1
 mccormick3[11]: x[11] + u[11] - r[11] <= 1
 mccormick3[12]: x[12] + u[12] - r[12] <= 1
 mccormick3[13]: x[13] + u[13] - r[13] <= 1
 mccormick3[14]: x[14] + u[14] - r[14] <= 1
 mccormick3[15]: x[15] + u[15] - r[15] <= 1
 mccormick3[16]: x[16] + u[16] - r[16] <= 1
 mccormick3[17]: x[17] + u[17] - r[17] <= 1
 mccormick3[18]: x[18] + u[18] - r[18] <= 1
 mccormick3[19]: x[19] + u[19] - r[19] <= 1
 mccormick3[20]: x[20] + u[20] - r[20] <= 1
 mccormick3[21]: x[21] + u[21] - r[21] <= 1
 mccormick3[22]: x[22] + u[22] - r[22] <= 1
 mccormick3[23]: x[23] + u[23] - r[23] <= 1
 mccormick3[24]: x[24] + u[24] - r[24] <= 1
 mccormick3[25]: x[25] + u[25] - r[25] <= 1
 mccormick3[26]: x[26] + u[26] - r[26] <= 1
 mccormick3[27]: x[27] + u[27] - r[27] <= 1
 mccormick3[28]: x[28] + u[28] - r[28] <= 1
 mccormick3[29]: x[29] + u[29] - r[29] <= 1
 mccormick3[30]: x[30] + u[30] - r[30] <= 1
 mccormick3[31]: x[31] + u[31] - r[31] <= 1
 mccormick3[32]: x[32] + u[32] - r[32] <= 1
 mccormick3[33]: x[33] + u[33] - r[33] <= 1
 mccormick3[34]: x[34] + u[34] - r[34] <= 1
 mccormick3[35]: x[35] + u[35] - r[35] <= 1
 mccormick3[36]: x[36] + u[36] - r[36] <= 1
 mccormick3[37]: x[37] + u[37] - r[37] <= 1
 mccormick3[38]: x[38] + u[38] - r[38] <= 1
 mccormick3[39]: x[39] + u[39] - r[39] <= 1
 mccormick3[40]: x[40] + u[40] - r[40] <= 1
 mccormick3[41]: x[41] + u[41] - r[41] <= 1
 mccormick3[42]: x[42] + u[42] - r[42] <= 1
 mccormick3[43]: x[43] + u[43] - r[43] <= 1
 mccormick3[44]: x[44] + u[44] - r[44] <= 1
 mccormick3[45]: x[45] + u[45] - r[45] <= 1
 mccormick3[46]: x[46] + u[46] - r[46] <= 1
 mccormick3[47]: x[47] + u[47] - r[47] <= 1
 mccormick3[48]: x[48] + u[48] - r[48] <= 1
 mccormick3[49]: x[49] + u[49] - r[49] <= 1
 mccormick3[50]: x[50] + u[50] - r[50] <= 1
 mccormick3[51]: x[51] + u[51] - r[51] <= 1
 mccormick3[52]: x[52] + u[52] - r[52] <= 1
 mccormick3[53]: x[53] + u[53] - r[53] <= 1
 mccormick3[54]: x[54] + u[54] - r[54] <= 1
 mccormick3[55]: x[55] + u[55] - r[55] <= 1
 mccormick3[56]: x[56] + u[56] - r[56] <= 1
 mccormick3[57]: x[57] + u[57] - r[57] <= 1
 mccormick3[58]: x[58] + u[58] - r[58] <= 1
 mccormick3[59]: x[59] + u[59] - r[59] <= 1
 mccormick3[60]: x[60] + u[60] - r[60] <= 1
 mccormick3[61]: x[61] + u[61] - r[61] <= 1
 mccormick3[62]: x[62] + u[62] - r[62] <= 1
 mccormick3[63]: x[63] + u[63] - r[63] <= 1
 mccormick3[64]: x[64] + u[64] - r[64] <= 1
 mccormick3[65]: x[65] + u[65] - r[65] <= 1
 mccormick3[66]: x[66] + u[66] - r[66] <= 1
 mccormick3[67]: x[67] + u[67] - r[67] <= 1
 mccormick3[68]: x[68] + u[68] - r[68] <= 1
 mccormick3[69]: x[69] + u[69] - r[69] <= 1
 mccormick3[70]: x[70] + u[70] - r[70] <= 1
 mccormick3[71]: x[71] + u[71] - r[71] <= 1
 mccormick3[72]: x[72] + u[72] - r[72] <= 1
 mccormick3[73]: x[73] + u[73] - r[73] <= 1
 mccormick3[74]: x[74] + u[74] - r[74] <= 1
 mccormick3[75]: x[75] + u[75] - r[75] <= 1
 mccormick3[76]: x[76] + u[76] - r[76] <= 1
 mccormick3[77]: x[77] + u[77] - r[77] <= 1
 mccormick3[78]: x[78] + u[78] - r[78] <= 1
 mccormick3[79]: x[79] + u[79] - r[79] <= 1
 mccormick3[80]: x[80] + u[80] - r[80] <= 1
 mccormick3[81]: x[81] + u[81] - r[81] <= 1
 mccormick3[82]: x[82] + u[82] - r[82] <= 1
 mccormick3[83]: x[83] + u[83] - r[83] <= 1
 mccormick3[84]: x[84] + u[84] - r[84] <= 1
 mccormick3[85]: x[85] + u[85] - r[85] <= 1
 mccormick3[86]: x[86] + u[86] - r[86] <= 1
 mccormick3[87]: x[87] + u[87] - r[87] <= 1
 mccormick3[88]: x[88] + u[88] - r[88] <= 1
 mccormick3[89]: x[89] + u[89] - r[89] <= 1
 mccormick3[90]: x[90] + u[90] - r[90] <= 1
 mccormick3[91]: x[91] + u[91] - r[91] <= 1
 mccormick3[92]: x[92] + u[92] - r[92] <= 1
 mccormick3[93]: x[93] + u[93] - r[93] <= 1
 mccormick3[94]: x[94] + u[94] - r[94] <= 1
 mccormick3[95]: x[95] + u[95] - r[95] <= 1
 mccormick3[96]: x[96] + u[96] - r[96] <= 1
 mccormick3[97]: x[97] + u[97] - r[97] <= 1
 mccormick3[98]: x[98] + u[98] - r[98] <= 1
 mccormick3[99]: x[99] + u[99] - r[99] <= 1
 mccormick3[100]: x[100] + u[100] - r[100] <= 1
 mccormick3[101]: x[101] + u[101] - r[101] <= 1
 mccormick3[102]: x[102] + u[102] - r[102] <= 1
 mccormick3[103]: x[103] + u[103] - r[103] <= 1
 mccormick3[104]: x[104] + u[104] - r[104] <= 1
 mccormick3[105]: x[105] + u[105] - r[105] <= 1
 mccormick3[106]: x[106] + u[106] - r[106] <= 1
 mccormick3[107]: x[107] + u[107] - r[107] <= 1
 mccormick3[108]: x[108] + u[108] - r[108] <= 1
 mccormick3[109]: x[109] + u[109] - r[109] <= 1
 mccormick3[110]: x[110] + u[110] - r[110] <= 1
 mccormick3[111]: x[111] + u[111] - r[111] <= 1
 mccormick3[112]: x[112] + u[112] - r[112] <= 1
 mccormick3[113]: x[113] + u[113] - r[113] <= 1
 mccormick3[114]: x[114] + u[114] - r[114] <= 1
 mccormick3[115]: x[115] + u[115] - r[115] <= 1
 mccormick3[116]: x[116] + u[116] - r[116] <= 1
 mccormick3[117]: x[117] + u[117] - r[117] <= 1
 mccormick3[118]: x[118] + u[118] - r[118] <= 1
 mccormick3[119]: x[119] + u[119] - r[119] <= 1
 mccormick3[120]: x[120] + u[120] - r[120] <= 1
 mccormick3[121]: x[121] + u[121] - r[121] <= 1
 mccormick3[122]: x[122] + u[122] - r[122] <= 1
 mccormick3[123]: x[123] + u[123] - r[123] <= 1
 mccormick3[124]: x[124] + u[124] - r[124] <= 1
 mccormick3[125]: x[125] + u[125] - r[125] <= 1
 mccormick3[126]: x[126] + u[126] - r[126] <= 1
 mccormick3[127]: x[127] + u[127] - r[127] <= 1
 mccormick3[128]: x[128] + u[128] - r[128] <= 1
 mccormick3[129]: x[129] + u[129] - r[129] <= 1
 mccormick3[130]: x[130] + u[130] - r[130] <= 1
 mccormick3[131]: x[131] + u[131] - r[131] <= 1
 mccormick3[132]: x[132] + u[132] - r[132] <= 1
 mccormick3[133]: x[133] + u[133] - r[133] <= 1
 mccormick3[134]: x[134] + u[134] - r[134] <= 1
 mccormick3[135]: x[135] + u[135] - r[135] <= 1
 mccormick3[136]: x[136] + u[136] - r[136] <= 1
 mccormick3[137]: x[137] + u[137] - r[137] <= 1
 mccormick3[138]: x[138] + u[138] - r[138] <= 1
 mccormick3[139]: x[139] + u[139] - r[139] <= 1
 mccormick3[140]: x[140] + u[140] - r[140] <= 1
 mccormick3[141]: x[141] + u[141] - r[141] <= 1
 mccormick3[142]: x[142] + u[142] - r[142] <= 1
 mccormick3[143]: x[143] + u[143] - r[143] <= 1
 mccormick3[144]: x[144] + u[144] - r[144] <= 1
 mccormick3[145]: x[145] + u[145] - r[145] <= 1
 mccormick3[146]: x[146] + u[146] - r[146] <= 1
 mccormick3[147]: x[147] + u[147] - r[147] <= 1
 mccormick3[148]: x[148] + u[148] - r[148] <= 1
 mccormick3[149]: x[149] + u[149] - r[149] <= 1
Bounds
Binaries
 x[0] x[1] x[2] x[3] x[4] x[5] x[6] x[7] x[8] x[9] x[10] x[11] x[12] x[13]
 x[14] x[15] x[16] x[17] x[18] x[19] x[20] x[21] x[22] x[23] x[24] x[25]
 x[26] x[27] x[28] x[29] x[30] x[31] x[32] x[33] x[34] x[35] x[36] x[37]
 x[38] x[39] x[40] x[41] x[42] x[43] x[44] x[45] x[46] x[47] x[48] x[49]
 x[50] x[51] x[52] x[53] x[54] x[55] x[56] x[57] x[58] x[59] x[60] x[61]
 x[62] x[63] x[64] x[65] x[66] x[67] x[68] x[69] x[70] x[71] x[72] x[73]
 x[74] x[75] x[76] x[77] x[78] x[79] x[80] x[81] x[82] x[83] x[84] x[85]
 x[86] x[87] x[88] x[89] x[90] x[91] x[92] x[93] x[94] x[95] x[96] x[97]
 x[98] x[99] x[100] x[101] x[102] x[103] x[104] x[105] x[106] x[107] x[108]
 x[109] x[110] x[111] x[112] x[113] x[114] x[115] x[116] x[117] x[118]
 x[119] x[120] x[121] x[122] x[123] x[124] x[125] x[126] x[127] x[128]
 x[129] x[130] x[131] x[132] x[133] x[134] x[135] x[136] x[137] x[138]
 x[139] x[140] x[141] x[142] x[143] x[144] x[145] x[146] x[147] x[148]
 x[149] u[0] u[1] u[2] u[3] u[4] u[5] u[6] u[7] u[8] u[9] u[10] u[11] u[12]
 u[13] u[14] u[15] u[16] u[17] u[18] u[19] u[20] u[21] u[22] u[23] u[24]
 u[25] u[26] u[27] u[28] u[29] u[30] u[31] u[32] u[33] u[34] u[35] u[36]
 u[37] u[38] u[39] u[40] u[41] u[42] u[43] u[44] u[45] u[46] u[47] u[48]
 u[49] u[50] u[51] u[52] u[53] u[54] u[55] u[56] u[57] u[58] u[59] u[60]
 u[61] u[62] u[63] u[64] u[65] u[66] u[67] u[68] u[69] u[70] u[71] u[72]
 u[73] u[74] u[75] u[76] u[77] u[78] u[79] u[80] u[81] u[82] u[83] u[84]
 u[85] u[86] u[87] u[88] u[89] u[90] u[91] u[92] u[93] u[94] u[95] u[96]
 u[97] u[98] u[99] u[100] u[101] u[102] u[103] u[104] u[105] u[106] u[107]
 u[108] u[109] u[110] u[111] u[112] u[113] u[114] u[115] u[116] u[117]
 u[118] u[119] u[120] u[121] u[122] u[123] u[124] u[125] u[126] u[127]
 u[128] u[129] u[130] u[131] u[132] u[133] u[134] u[135] u[136] u[137]
 u[138] u[139] u[140] u[141] u[142] u[143] u[144] u[145] u[146] u[147]
 u[148] u[149] r[0] r[1] r[2] r[3] r[4] r[5] r[6] r[7] r[8] r[9] r[10]
 r[11] r[12] r[13] r[14] r[15] r[16] r[17] r[18] r[19] r[20] r[21] r[22]
 r[23] r[24] r[25] r[26] r[27] r[28] r[29] r[30] r[31] r[32] r[33] r[34]
 r[35] r[36] r[37] r[38] r[39] r[40] r[41] r[42] r[43] r[44] r[45] r[46]
 r[47] r[48] r[49] r[50] r[51] r[52] r[53] r[54] r[55] r[56] r[57] r[58]
 r[59] r[60] r[61] r[62] r[63] r[64] r[65] r[66] r[67] r[68] r[69] r[70]
 r[71] r[72] r[73] r[74] r[75] r[76] r[77] r[78] r[79] r[80] r[81] r[82]
 r[83] r[84] r[85] r[86] r[87] r[88] r[89] r[90] r[91] r[92] r[93] r[94]
 r[95] r[96] r[97] r[98] r[99] r[100] r[101] r[102] r[103] r[104] r[105]
 r[106] r[107] r[108] r[109] r[110] r[111] r[112] r[113] r[114] r[115]
 r[116] r[117] r[118] r[119] r[120] r[121] r[122] r[123] r[124] r[125]
 r[126] r[127] r[128] r[129] r[130] r[131] r[132] r[133] r[134] r[135]
 r[136] r[137] r[138] r[139] r[140] r[141] r[142] r[143] r[144] r[145]
 r[146] r[147] r[148] r[149]
End
