instances/knapsack/discrete_knapsack_uncertainty/knapsack_150_5.kp
95255
150
772

80 8.0 57
97 9.7 97
31 3.1 71
20 2.0 3
61 6.1 76
46 4.6 68
66 6.6 96
76 7.6 50
70 7.0 45
91 9.1 9
92 9.2 18
28 2.8 70
53 5.3 98
93 9.3 61
37 3.7 34
21 2.1 71
54 5.4 53
53 5.3 57
22 2.2 81
23 2.3 72
82 8.2 56
52 5.2 74
13 1.3 55
63 6.3 23
37 3.7 64
41 4.1 9
47 4.7 67
60 6.0 18
82 8.2 37
36 3.6 51
98 9.8 12
88 8.8 67
48 4.8 63
18 1.8 78
9 0.9 10
22 2.2 60
1 0.1 76
73 7.3 82
29 2.9 73
27 2.7 90
16 1.6 31
34 3.4 20
67 6.7 28
46 4.6 90
72 7.2 73
91 9.1 22
98 9.8 67
42 4.2 63
28 2.8 95
21 2.1 28
15 1.5 38
9 0.9 61
26 2.6 98
13 1.3 4
37 3.7 87
20 2.0 45
50 5.0 85
59 5.9 79
13 1.3 39
87 8.7 62
29 2.9 71
27 2.7 13
4 0.4 64
99 9.9 44
36 3.6 1
97 9.7 68
85 8.5 32
91 9.1 96
77 7.7 31
26 2.6 68
94 9.4 52
66 6.6 26
43 4.3 60
16 1.6 44
100 10.0 9
53 5.3 29
3 0.3 69
84 8.4 20
65 6.5 95
95 9.5 42
78 7.8 62
74 7.4 29
91 9.1 40
94 9.4 81
70 7.0 92
18 1.8 87
28 2.8 45
53 5.3 78
63 6.3 27
96 9.6 89
61 6.1 17
69 6.9 64
69 6.9 92
72 7.2 43
17 1.7 7
82 8.2 25
62 6.2 16
65 6.5 11
69 6.9 83
85 8.5 39
78 7.8 95
21 2.1 52
79 7.9 61
49 4.9 4
54 5.4 86
99 9.9 98
80 8.0 73
27 2.7 39
19 1.9 21
94 9.4 19
83 8.3 100
36 3.6 9
22 2.2 40
14 1.4 50
66 6.6 25
59 5.9 92
100 10.0 38
82 8.2 68
94 9.4 37
53 5.3 98
44 4.4 92
9 0.9 85
64 6.4 97
59 5.9 6
74 7.4 26
11 1.1 47
32 3.2 67
84 8.4 53
95 9.5 94
36 3.6 3
78 7.8 21
14 1.4 6
67 6.7 55
93 9.3 57
37 3.7 76
79 7.9 10
50 5.0 55
31 3.1 88
2 0.2 26
85 8.5 56
60 6.0 81
5 0.5 75
16 1.6 28
56 5.6 54
74 7.4 39
67 6.7 1
95 9.5 40
60 6.0 46
29 2.9 87
3 0.3 5

13416
739

[1.814565968950681 1.9233475752990035 3.2447887473115453 0.3746987697875775 2.937806153672177 4.3183239616428235 1.3054732286882078 1.5001638224852532 3.528054311549615 4.315343454972487 3.2815374505024364 3.112465268280854 1.9795753612559763 4.0385225881002205 4.4135914328788965 0.6143351191937321 1.3788660062050113 1.376633821213865 1.0925030805682376 1.7551261277781471 1.943591659105031 4.494380439784959 4.896518088500407 3.7089059771985506 0.7517991539963679 1.4615002351439923 3.1785205137105095 0.6613816528440613 4.909748690591889 0.8044104954693 0.2564040439576196 0.5964266792610794 0.23002642609958707 3.8615333884707344 3.86349439654328 0.5358003857086597 4.165499635195115 4.803781950781801 3.526657625661378 2.865227021488655 0.20291655273520157 2.4490298552973995 4.304377274195717 1.191470882380851 3.304960193325066 1.0780474910380433 2.7640690775341126 2.206371186265947 1.8852045017050558 3.8053115428840414 0.28931726789281687 2.122322293677305 0.45424645361994537 3.603727754508156 2.4023254028240766 0.9312568309437749 3.4258737004249356 1.8294560800883968 1.2008503410468017 1.794561272166735 4.492485918037309 1.1404114037269872 3.5536843211804774 3.8758268420162243 1.527850028559553 0.12983503603674937 4.314304476571858 4.682411224063327 1.6622781524576558 0.30452658973148566 1.1108422413372443 3.3513165873016564 3.7800028054706427 0.609100058716067 0.3810871606896128 3.3499666863519844 2.008056742077005 1.2679336823232987 0.028649483179791293 1.9642717769525815 1.793187213246333 2.0439155273780196 0.35537490894350804 3.9189123189287836 0.23037150923225944 0.17121259483195772 0.9159233899476731 0.12158917268995893 0.8396671754500177 1.5900550904056574 1.4279304379274198 3.438844878854333 3.2095120885376067 3.9528878793969464 1.9874229930732827 2.0132310374036986 0.32518068528240074 3.646561023874788 2.94179842497122 1.0811743376282996 3.2930262097904226 3.2303489325232717 4.863889080042927 3.5055823457303394 3.532181426919801 4.396115606777624 1.8573949118393955 4.402929568307627 4.359684906240245 1.4454475154373965 0.5107579259637332 1.4143035474389254 0.9111273173537601 2.585005890416199 3.94357353398106 4.914743874277542 0.6067608319654832 4.19954317057759 2.981951302925635 2.5918798381832646 1.3976794765916591 3.8094441630147178 3.31768372753477 3.626209698307599 3.84096829965656 3.9282407279191722 2.2027305279034164 2.040758096999554 0.9537818378173851 0.9264386257353429 4.294679520392503 4.0379393892611555 1.7145872643333384 3.636411635739982 3.028027674224713 0.15356862644865205 3.944181642262458 2.439503306523885 2.8988782076198043 1.7284237296641274 3.6079198888104185 0.9004715006431305 4.750759967288556 3.5344395869442624 1.4570661174803634 4.863624747429477 2.854231188466379 3.3379595456328612 1.2786127487531525 4.000364328756144]

[59 79 17 18 63 57 20 51 4 25 83 50 11 79 60 96 92 39 40 73 88 83 15 34 8 63 1 43 97 98 85 63 11 24 67 8 71 32 79 70 98 81 29 53 14 6 97 17 90 47 70 7 52 59 84 59 96 2 11 97 100 66 23 10 63 63 88 90 47 73 53 69 1 14 79 60 10 90 68 58 61 49 38 1 29 33 23 15 69 86 24 36 68 43 67 68 64 40 55 79 20 63 57 75 44 5 70 50 6 12 14 46 52 96 12 50 50 72 96 88 95 28 7 38 60 14 35 15 90 66 1 72 98 19 8 93 40 74 5 55 98 100 94 2 64 1 77 90 96 53]
